%%% static parameters %%%
timespan = 1;
Fact = [3];
Distr1 = [10];
Distr2 = [20];
Clients_N = [40];
Demand_W = [15];
Lt0 = [4];
Lt1 = [4];
SS_ = [0.85];
DS_D = [7];
K = [200];
MA = [500];
%%% dynamic parameters %%%
lost_ratio_sales_ret_th = 0.8303396628675382;
lost_ratio_sales_ret_w = 58;
lost_ratio_sales_dis_th = 0.059039769654201435;
lost_ratio_sales_dis_w = 45;
lost_ratio_sales_fac_th = 0.40672858010014423;
lost_ratio_sales_fac_w = 91;
stock_customer_MA_mean_relative_th = 0.8650031722558158;
stock_customer_MA_mean_relative_w = 42;
stock_distributor_MA_mean_relative_th = 0.7643952893814216;
stock_distributor_MA_mean_relative_w = 41;
stock_retailer_MA_mean_relative_th = 0.7624967022568314;
stock_retailer_MA_mean_relative_w = 99;
stock_factory_MA_mean_relative_th = 0.9815720219276493;
stock_factory_MA_mean_relative_w = 17;
